matrix = [|
  7, 70, 1, 10, 22, 15, 27, 9, 18, 6, 17, 26, 4, 20, 32, 8, 1, 33, 23, 12, 2, 0, 0, 0, 0, 0, 0, 0, 0, 0, 0, 0, 0, 0, 0, 0, 0, 0 |
  2, 79, 1, 32, 12, 27, 4, 13, 6, 25, 2, 11, 10, 8, 20, 34, 16, 5, 24, 18, 19, 0, 0, 0, 0, 0, 0, 0, 0, 0, 0, 0, 0, 0, 0, 0, 0, 0 |
  10, 57, 0, 26, 17, 31, 24, 1, 12, 35, 32, 19, 2, 20, 28, 14, 7, 15, 0, 0, 0, 0, 0, 0, 0, 0, 0, 0, 0, 0, 0, 0, 0, 0, 0, 0, 0, 0 |
  3, 72, 1, 17, 15, 33, 6, 18, 24, 8, 25, 3, 9, 5, 0, 0, 0, 0, 0, 0, 0, 0, 0, 0, 0, 0, 0, 0, 0, 0, 0, 0, 0, 0, 0, 0, 0, 0 |
  1, 42, 1, 34, 19, 3, 6, 17, 12, 9, 24, 0, 0, 0, 0, 0, 0, 0, 0, 0, 0, 0, 0, 0, 0, 0, 0, 0, 0, 0, 0, 0, 0, 0, 0, 0, 0, 0 |
  4, 45, 1, 6, 12, 26, 33, 22, 9, 13, 20, 1, 31, 17, 4, 0, 0, 0, 0, 0, 0, 0, 0, 0, 0, 0, 0, 0, 0, 0, 0, 0, 0, 0, 0, 0, 0, 0 |
  1, 46, 1, 24, 1, 25, 30, 26, 31, 8, 22, 5, 4, 9, 20, 29, 17, 33, 6, 0, 0, 0, 0, 0, 0, 0, 0, 0, 0, 0, 0, 0, 0, 0, 0, 0, 0, 0 |
  2, 76, 1, 15, 17, 30, 4, 27, 11, 34, 20, 32, 0, 0, 0, 0, 0, 0, 0, 0, 0, 0, 0, 0, 0, 0, 0, 0, 0, 0, 0, 0, 0, 0, 0, 0, 0, 0 |
  2, 71, 1, 31, 15, 33, 1, 23, 32, 24, 5, 13, 9, 22, 27, 12, 34, 0, 0, 0, 0, 0, 0, 0, 0, 0, 0, 0, 0, 0, 0, 0, 0, 0, 0, 0, 0, 0 |
  4, 45, 0, 10, 30, 9, 26, 11, 18, 12, 31, 35, 29, 2, 27, 23, 24, 0, 0, 0, 0, 0, 0, 0, 0, 0, 0, 0, 0, 0, 0, 0, 0, 0, 0, 0, 0, 0 |
  3, 58, 1, 1, 30, 15, 11, 29, 2, 18, 5, 3, 22, 24, 17, 23, 25, 27, 33, 19, 12, 10, 13, 6, 0, 0, 0, 0, 0, 0, 0, 0, 0, 0, 0, 0, 0, 0 |
  7, 75, 1, 15, 6, 22, 1, 20, 9, 30, 0, 0, 0, 0, 0, 0, 0, 0, 0, 0, 0, 0, 0, 0, 0, 0, 0, 0, 0, 0, 0, 0, 0, 0, 0, 0, 0, 0 |
  6, 63, 1, 30, 15, 19, 22, 16, 11, 32, 29, 17, 31, 23, 13, 5, 8, 0, 0, 0, 0, 0, 0, 0, 0, 0, 0, 0, 0, 0, 0, 0, 0, 0, 0, 0, 0, 0 |
  1, 47, 1, 27, 31, 20, 22, 13, 15, 2, 24, 12, 6, 16, 23, 33, 1, 32, 0, 0, 0, 0, 0, 0, 0, 0, 0, 0, 0, 0, 0, 0, 0, 0, 0, 0, 0, 0 |
  5, 65, 0, 21, 32, 14, 15, 18, 4, 29, 22, 2, 16, 33, 24, 23, 7, 0, 0, 0, 0, 0, 0, 0, 0, 0, 0, 0, 0, 0, 0, 0, 0, 0, 0, 0, 0, 0 |
  5, 76, 1, 10, 2, 18, 17, 26, 3, 29, 30, 32, 34, 24, 0, 0, 0, 0, 0, 0, 0, 0, 0, 0, 0, 0, 0, 0, 0, 0, 0, 0, 0, 0, 0, 0, 0, 0 |
  5, 44, 1, 8, 13, 23, 25, 31, 32, 17, 22, 3, 16, 19, 2, 10, 0, 0, 0, 0, 0, 0, 0, 0, 0, 0, 0, 0, 0, 0, 0, 0, 0, 0, 0, 0, 0, 0 |
  3, 60, 1, 2, 19, 16, 6, 12, 27, 11, 3, 18, 4, 5, 34, 13, 23, 10, 32, 29, 30, 9, 33, 0, 0, 0, 0, 0, 0, 0, 0, 0, 0, 0, 0, 0, 0, 0 |
  2, 42, 1, 34, 11, 19, 6, 20, 26, 12, 13, 2, 33, 17, 27, 0, 0, 0, 0, 0, 0, 0, 0, 0, 0, 0, 0, 0, 0, 0, 0, 0, 0, 0, 0, 0, 0, 0 |
  2, 68, 0, 30, 31, 27, 6, 1, 11, 2, 22, 4, 32, 0, 0, 0, 0, 0, 0, 0, 0, 0, 0, 0, 0, 0, 0, 0, 0, 0, 0, 0, 0, 0, 0, 0, 0, 0 |
  9, 58, 1, 11, 23, 18, 27, 33, 15, 1, 24, 25, 16, 4, 26, 9, 32, 31, 10, 0, 0, 0, 0, 0, 0, 0, 0, 0, 0, 0, 0, 0, 0, 0, 0, 0, 0, 0 |
  8, 75, 0, 10, 1, 4, 7, 31, 26, 34, 32, 19, 13, 0, 0, 0, 0, 0, 0, 0, 0, 0, 0, 0, 0, 0, 0, 0, 0, 0, 0, 0, 0, 0, 0, 0, 0, 0 |
  5, 80, 1, 17, 26, 15, 20, 6, 24, 31, 18, 1, 16, 11, 22, 5, 4, 0, 0, 0, 0, 0, 0, 0, 0, 0, 0, 0, 0, 0, 0, 0, 0, 0, 0, 0, 0, 0 |
  2, 63, 1, 19, 12, 31, 13, 8, 23, 22, 24, 2, 0, 0, 0, 0, 0, 0, 0, 0, 0, 0, 0, 0, 0, 0, 0, 0, 0, 0, 0, 0, 0, 0, 0, 0, 0, 0 |
  1, 74, 1, 3, 31, 6, 33, 24, 19, 2, 12, 22, 34, 27, 0, 0, 0, 0, 0, 0, 0, 0, 0, 0, 0, 0, 0, 0, 0, 0, 0, 0, 0, 0, 0, 0, 0, 0 |
  2, 66, 1, 6, 8, 26, 20, 34, 22, 29, 33, 9, 11, 25, 2, 13, 16, 3, 27, 17, 5, 31, 10, 0, 0, 0, 0, 0, 0, 0, 0, 0, 0, 0, 0, 0, 0, 0 |
  4, 58, 1, 23, 12, 10, 11, 8, 31, 22, 24, 0, 0, 0, 0, 0, 0, 0, 0, 0, 0, 0, 0, 0, 0, 0, 0, 0, 0, 0, 0, 0, 0, 0, 0, 0, 0, 0 |
  4, 76, 1, 32, 2, 25, 29, 31, 34, 17, 27, 4, 18, 1, 5, 9, 10, 30, 12, 0, 0, 0, 0, 0, 0, 0, 0, 0, 0, 0, 0, 0, 0, 0, 0, 0, 0, 0 |
  1, 74, 0, 29, 11, 17, 30, 15, 9, 10, 7, 2, 35, 16, 31, 14, 8, 22, 28, 19, 33, 24, 34, 0, 0, 0, 0, 0, 0, 0, 0, 0, 0, 0, 0, 0, 0, 0 |
  8, 49, 0, 4, 32, 20, 13, 8, 19, 29, 23, 31, 3, 16, 25, 0, 0, 0, 0, 0, 0, 0, 0, 0, 0, 0, 0, 0, 0, 0, 0, 0, 0, 0, 0, 0, 0, 0 |
  5, 45, 1, 24, 5, 4, 17, 29, 30, 26, 8, 3, 13, 22, 0, 0, 0, 0, 0, 0, 0, 0, 0, 0, 0, 0, 0, 0, 0, 0, 0, 0, 0, 0, 0, 0, 0, 0 |
  4, 68, 0, 7, 18, 12, 17, 25, 27, 9, 1, 22, 16, 2, 4, 34, 0, 0, 0, 0, 0, 0, 0, 0, 0, 0, 0, 0, 0, 0, 0, 0, 0, 0, 0, 0, 0, 0 |
  2, 63, 1, 4, 31, 18, 19, 9, 34, 5, 24, 23, 22, 10, 32, 15, 11, 27, 0, 0, 0, 0, 0, 0, 0, 0, 0, 0, 0, 0, 0, 0, 0, 0, 0, 0, 0, 0 |
  1, 69, 1, 31, 13, 6, 22, 25, 27, 30, 5, 12, 4, 16, 9, 24, 19, 15, 17, 0, 0, 0, 0, 0, 0, 0, 0, 0, 0, 0, 0, 0, 0, 0, 0, 0, 0, 0 |
  5, 78, 1, 11, 12, 19, 25, 30, 33, 3, 24, 2, 0, 0, 0, 0, 0, 0, 0, 0, 0, 0, 0, 0, 0, 0, 0, 0, 0, 0, 0, 0, 0, 0, 0, 0, 0, 0 |
  3, 75, 1, 16, 23, 2, 15, 22, 20, 34, 6, 31, 0, 0, 0, 0, 0, 0, 0, 0, 0, 0, 0, 0, 0, 0, 0, 0, 0, 0, 0, 0, 0, 0, 0, 0, 0, 0 |
  1, 52, 0, 26, 7, 25, 8, 15, 18, 16, 21, 0, 0, 0, 0, 0, 0, 0, 0, 0, 0, 0, 0, 0, 0, 0, 0, 0, 0, 0, 0, 0, 0, 0, 0, 0, 0, 0 |
  7, 52, 1, 25, 22, 4, 12, 3, 29, 10, 0, 0, 0, 0, 0, 0, 0, 0, 0, 0, 0, 0, 0, 0, 0, 0, 0, 0, 0, 0, 0, 0, 0, 0, 0, 0, 0, 0 |
  5, 77, 1, 31, 19, 29, 32, 3, 11, 1, 25, 17, 22, 12, 26, 6, 0, 0, 0, 0, 0, 0, 0, 0, 0, 0, 0, 0, 0, 0, 0, 0, 0, 0, 0, 0, 0, 0 |
  3, 73, 1, 31, 10, 24, 9, 6, 2, 5, 22, 34, 23, 15, 4, 29, 26, 1, 32, 19, 0, 0, 0, 0, 0, 0, 0, 0, 0, 0, 0, 0, 0, 0, 0, 0, 0, 0 |
|];
